(declare-const term_to_project_onto0 Real)
(declare-const term_to_project_onto Real)
(declare-const term_to_project_onto1 Real)
(assert (exists
         ((havoc?1 Int) (phi_tmp?2 Int) (|tmp'?3| Int) (|x'?4| Int)
            (|__cost'?5| Int) (K?6 Int) (|tmp'?7| Int) (|x'?8| Int)
            (|__cost'?9| Int) (tmp?10 Int) (n?11 Int) (x?12 Int)
            (__cost?13 Int))
         (and (<= (- x?12) 0) (<= (+ (- n?11) x?12 1) 0) (<= (- __cost?13) 0)
                (<= (+ (- __cost?13) -1) 0)
                (= (+ (- |__cost'?5|) K?6 __cost?13 1) 0)
                (= (+ (- |x'?4|) K?6 x?12 1) 0)
                (or (and (= K?6 0) (= (+ (- |tmp'?3|) tmp?10) 0)
                           (= (+ (- |x'?4|) x?12 1) 0)
                           (= (+ (- |__cost'?5|) __cost?13 1) 0))
                      (and (<= (+ (- K?6) 1) 0) (<= (+ (- n?11) x?12 2) 0)
                             (<= (- x?12) 0) (<= (- __cost?13) 0)
                             (<= (+ (- |x'?4|) 2) 0)
                             (<= (+ (- |__cost'?5|) 2) 0)
                             (<= (+ |x'?4| (- n?11)) 0))) (<= (- K?6) 0)
                (<= (+ (- n?11) 1) 0) (<= (+ (- |x'?4|) 1) 0)
                (<= (+ (- |__cost'?5|) 1) 0)
                (or (and (<= (+ (- |x'?4|) n?11) 0)
                           (= (+ (- phi_tmp?2) |tmp'?3|) 0))
                      (and (<= (+ |x'?4| (- n?11) 1) 0) (= havoc?1 0)
                             (= (+ havoc?1 (- phi_tmp?2)) 0)))
                (= (+ |tmp'?7| (- phi_tmp?2)) 0) (= (+ |x'?8| (- |x'?4|)) 0)
                (= (+ |__cost'?9| (- |__cost'?5|)) 0)
                (= term_to_project_onto1 (+ |__cost'?9| (- __cost?13)))
                (= term_to_project_onto0 (+ |x'?8| (- x?12)))
                (= term_to_project_onto (+ |tmp'?7| (- tmp?10))))))
(check-sat)
